c ren 1 -> 1
c ren 2 -> 2
c ren 3 -> 3
c ren 4 -> 4
c ren 5 -> 5
c ren 6 -> 6
c ren 7 -> 7
c ren 8 -> 8
c ren 9 -> 9
c ren 10 -> 10
c ren 11 -> 11
c ren 12 -> 12
c ren 13 -> 13
c ren 14 -> 14
c ren 15 -> 15
c ren 16 -> 16
c ren 17 -> 17
c ren 18 -> 18
c ren 19 -> 19
c ren 20 -> 20
c ren 21 -> 21
c ren 22 -> 22
c ren 23 -> 23
c ren 24 -> 24
c ren 25 -> 25
c ren 26 -> 26
c ren 27 -> 27
c ren 28 -> 28
c ren 29 -> 29
c ren 30 -> 30
c ren 31 -> 31
c ren 32 -> 32
c ren 43 -> 33
c ren 55 -> 34
c ren 60 -> 35
c ren 68 -> 36
c ren 71 -> 37
c ren 90 -> 38
c ren 120 -> 39
c ren 153 -> 40
c ren 155 -> 41
c ren 157 -> 42
c ren 162 -> 43
c ren 166 -> 44
c ren 168 -> 45
c ren 169 -> 46
c ren 170 -> 47
c ren 171 -> 48
c ren 172 -> 49
c ren 173 -> 50
c ren 174 -> 51
c ren 175 -> 52
c ren 176 -> 53
c ren 177 -> 54
c ren 178 -> 55
c ren 179 -> 56
c ren 180 -> 57
c ren 181 -> 58
c ren 182 -> 59
c ren 183 -> 60
c ren 184 -> 61
c ren 185 -> 62
c ren 186 -> 63
c ren 187 -> 64
c ren 188 -> 65
c ren 189 -> 66
c ren 190 -> 67
c ren 191 -> 68
c ren 192 -> 69
c ren 193 -> 70
c ren 194 -> 71
c ren 195 -> 72
c ren 196 -> 73
c ren 197 -> 74
c ren 198 -> 75
c ren 199 -> 76
c ren 200 -> 77
c ren 201 -> 78
c ren 202 -> 79
c ren 203 -> 80
c ren 204 -> 81
c ren 205 -> 82
c ren 206 -> 83
c ren 207 -> 84
c ren 208 -> 85
c ren 209 -> 86
c ren 210 -> 87
c ren 211 -> 88
c ren 212 -> 89
c ren 213 -> 90
c ren 214 -> 91
c ren 215 -> 92
c ren 216 -> 93
c ren 217 -> 94
c ren 218 -> 95
c ren 219 -> 96
c ren 220 -> 97
c ren 221 -> 98
c ren 244 -> 99
c ren 270 -> 100
c ren 271 -> 101
c ren 282 -> 102
c ren 283 -> 103
c ren 284 -> 104
c ren 285 -> 105
c ren 286 -> 106
c ren 287 -> 107
c ren 288 -> 108
c ren 289 -> 109
c ren 290 -> 110
c ren 291 -> 111
c ren 292 -> 112
c ren 293 -> 113
c ren 294 -> 114
c ren 295 -> 115
c ren 296 -> 116
c ren 297 -> 117
c ren 298 -> 118
c ren 299 -> 119
c ren 300 -> 120
c ren 301 -> 121
c ren 303 -> 122
c ren 304 -> 123
c ren 305 -> 124
c ren 306 -> 125
c ren 307 -> 126
c ren 308 -> 127
c ren 309 -> 128
c ren 310 -> 129
c ren 311 -> 130
c ren 312 -> 131
c ren 313 -> 132
c ren 314 -> 133
c ren 315 -> 134
c ren 316 -> 135
c ren 317 -> 136
c ren 318 -> 137
c ren 319 -> 138
p cnf 138 440
a 1 2 3 4 5 6 7 8 9 10 11 12 13 14 15 16 17 18 19 20 21 22 23 24 25 26 27 28 29 30 31 32 60 61 62 63 64 65 66 67 68 69 70 71 72 73 74 75 76 77 78 79 80 81 82 83 84 85 86 87 88 89 90 91 92 93 94 95 96 97 98 0
d 45 60 61 0
d 46 66 67 0
d 47 62 63 0
d 48 76 77 0
d 49 80 81 82 83 84 85 86 87 88 0
d 50 80 81 82 83 84 85 86 87 88 0
d 51 64 65 0
d 52 78 79 0
d 53 68 69 70 71 72 73 74 75 0
d 54 68 69 70 71 72 73 74 75 0
d 55 68 69 70 71 72 73 74 75 0
d 56 68 69 70 71 72 73 74 75 0
d 57 89 90 91 92 93 94 95 96 97 98 0
d 58 89 90 91 92 93 94 95 96 97 98 0
d 59 89 90 91 92 93 94 95 96 97 98 0
e 33 34 35 36 37 38 39 40 41 42 43 44 99 100 101 102 103 104 105 106 107 108 109 110 111 112 113 114 115 116 117 118 119 120 121 122 123 124 125 126 127 128 129 130 131 132 133 134 135 136 137 138 0
-10 -11 25 -26 -27 -33 34 -35 0
9 10 -27 -33 40 0
10 -25 -27 -34 35 0
10 11 -25 -34 35 0
10 -25 -26 40 0
11 -25 -26 -27 40 0
-10 -11 25 27 -40 0
9 -26 -27 -33 40 0
9 11 -26 -34 35 0
9 10 -26 35 0
-10 25 27 33 -40 0
-10 -11 25 33 -40 0
10 -11 25 26 27 -35 0
10 -25 -26 35 0
-9 10 26 27 -33 34 -35 0
-11 25 26 33 -40 0
-11 25 26 27 -40 0
10 11 -25 -27 40 0
12 33 0
-28 33 0
9 10 11 -27 35 0
-10 11 25 -26 27 -33 34 -35 0
10 -11 25 26 -33 34 -35 0
25 26 27 33 -40 0
9 11 -26 -27 35 0
-9 25 -40 0
10 11 -25 -33 40 0
10 25 26 27 -33 34 -35 0
10 -25 -27 -33 40 0
9 10 -26 40 0
9 10 11 -33 40 0
11 -25 -26 -34 35 0
9 -25 35 0
10 11 -25 -27 35 0
11 -25 -26 -33 40 0
-25 -26 -27 -33 40 0
-9 -11 26 33 -40 0
9 10 11 -34 35 0
9 10 -27 -34 35 0
9 10 11 -27 40 0
-10 25 26 -40 0
11 -25 -26 -27 35 0
-12 -34 0
28 -34 0
-1 -2 3 4 -17 -18 19 20 -39 0
-12 28 -33 0
-1 -2 -3 -4 20 -42 0
16 24 32 -33 34 36 37 43 44 46 -50 52 54 55 56 58 59 -102 0
-13 -14 15 -16 -29 -30 31 -32 35 38 39 -40 -41 -42 44 0
-9 -10 26 -40 0
-34 -44 -102 0
-9 -11 26 27 -40 0
9 -25 40 0
9 11 -26 -27 40 0
-25 -26 -27 -34 35 0
-1 -2 3 -4 -17 -18 19 -20 -39 0
-9 10 -11 26 27 -35 0
-9 26 27 33 -40 0
-13 -15 30 31 35 38 39 43 0
8 -21 -22 -23 -24 38 0
5 21 -37 0
7 8 23 24 36 37 -38 0
5 6 7 8 41 0
5 -22 -36 41 0
7 8 -21 -22 -24 38 0
6 -36 -47 -99 0
6 -22 36 0
-1 -2 -3 19 -42 0
-6 22 37 99 0
-21 -37 38 0
5 -21 37 0
6 -21 -36 41 0
-21 -37 41 0
6 -21 -36 38 0
6 7 8 -21 41 0
-8 24 -44 -102 0
-8 -33 34 36 37 43 46 -50 53 54 55 56 -57 -102 0
6 -46 -47 -51 -99 0
-6 22 36 0
5 -37 41 0
-5 21 37 0
5 6 -36 38 0
5 6 7 -23 38 0
-7 23 36 37 -41 0
-22 -46 -47 -51 -99 0
5 -37 38 0
5 -22 -36 38 0
-8 16 32 -33 34 36 37 44 46 49 50 52 53 54 55 56 57 58 59 99 -102 0
8 -24 -43 50 100 -102 0
-8 24 -101 0
6 8 -21 -23 41 0
5 7 -22 -23 41 0
-8 24 -43 50 100 -102 0
5 7 8 -22 -24 38 0
8 -21 -22 -23 41 0
6 7 -21 -24 41 0
6 8 -21 -23 -24 38 0
5 6 8 -23 41 0
7 -21 -22 -24 41 0
-8 16 32 -33 34 36 37 43 44 46 -50 52 54 55 56 58 59 -102 0
-21 -22 -36 41 0
-21 -22 -36 38 0
5 8 -22 -23 -24 38 0
6 22 -36 0
-13 14 15 16 -29 30 31 32 35 38 39 -40 -41 -42 44 0
7 -21 -22 -23 41 0
7 8 -21 -22 41 0
-7 -8 24 36 37 -41 0
-22 -36 -47 -99 0
8 -24 -101 0
-5 -21 -37 0
13 14 -15 16 29 30 -31 32 35 38 39 -40 -41 -42 44 0
-1 -3 -4 18 20 -42 0
-2 17 18 -42 0
1 2 3 4 42 0
2 -17 -18 42 0
1 4 -18 -19 42 0
1 2 3 -19 39 0
1 2 -3 4 17 18 -19 20 -39 0
1 2 -18 42 0
1 2 3 -19 42 0
1 -17 39 0
1 3 -18 -20 42 0
1 4 -18 -19 -20 39 0
2 -17 -18 39 0
1 2 -3 -4 17 18 -19 -20 -39 0
-3 17 18 19 -42 0
2 4 -17 -19 42 0
1 2 4 -19 -20 39 0
1 3 -18 -19 39 0
1 2 4 -19 42 0
-2 -3 17 19 -42 0
1 2 3 4 17 18 19 20 -39 0
1 2 3 -4 17 18 19 -20 -39 0
1 3 4 -18 -20 39 0
-1 17 -42 0
2 -17 -19 -20 42 0
1 3 4 -18 42 0
1 -17 42 0
1 -2 3 -4 17 -18 19 -20 -39 0
2 3 -17 -20 42 0
1 -2 -3 -4 17 -18 -19 -20 -39 0
3 4 -17 -18 42 0
-2 -3 -4 17 20 -42 0
1 -2 -3 4 17 -18 -19 20 -39 0
2 3 4 -17 42 0
1 -2 3 4 17 -18 19 20 -39 0
1 2 3 4 -20 39 0
1 -18 -19 -20 42 0
2 4 -17 -19 -20 39 0
1 2 -19 -20 42 0
3 -17 -18 -19 42 0
-4 17 18 19 20 -42 0
2 3 -17 -19 42 0
4 -17 -18 -19 42 0
2 3 4 -17 -20 39 0
2 3 -17 -19 39 0
4 -17 -18 -19 -20 39 0
-17 -18 -19 -20 42 0
-43 50 -99 100 -102 0
1 2 -18 39 0
-3 -4 17 18 20 -42 0
3 -17 -18 -20 42 0
3 -17 -18 -19 39 0
3 4 -17 -18 -20 39 0
-1 -2 18 -42 0
1 2 3 -20 42 0
-1 2 -3 -4 -17 18 -19 -20 -39 0
-39 -42 -43 0
38 39 40 43 0
-1 -4 18 19 20 -42 0
6 8 -47 -51 -99 0
-13 -15 31 -44 0
16 24 32 -33 34 36 37 44 46 -49 -50 52 53 54 55 56 57 58 59 99 -102 0
13 -14 15 -16 29 -30 31 -32 35 38 39 -40 -41 -42 44 0
14 15 16 -29 -40 -41 -42 -43 0
-35 -40 -41 -42 -43 0
-14 29 30 -44 0
-13 -14 -15 31 35 38 39 43 0
13 -14 -15 -16 29 -30 -31 -32 35 38 39 -40 -41 -42 44 0
5 6 7 8 -24 38 0
-16 24 -32 -33 34 36 37 44 46 -49 -50 52 53 54 55 56 57 58 59 99 -102 0
-16 29 30 31 32 35 38 39 43 0
-13 14 15 -16 -29 30 31 -32 35 38 39 -40 -41 -42 44 0
-13 -14 -16 31 32 35 38 39 43 0
13 15 16 -30 -40 -41 -42 -43 0
-13 -15 -16 30 32 35 38 39 43 0
13 -29 -44 0
13 14 15 16 -40 -41 -42 -43 0
-8 24 -43 -49 100 -102 0
-46 -101 0
15 -29 -30 -32 -40 -41 -42 -43 0
-13 -14 30 -44 0
16 -29 -30 -31 -40 -41 -42 -43 0
24 36 37 46 -49 -50 -53 99 101 0
-37 -43 50 100 -102 0
99 -100 0
13 -14 -15 16 29 -30 -31 32 35 38 39 -40 -41 -42 44 0
13 16 -30 -31 -40 -41 -42 -43 0
-9 -10 -11 -26 -27 -33 34 -35 0
13 14 -30 -40 -41 -42 -43 0
-13 29 -44 0
-49 -50 -99 100 0
14 -30 -44 0
-21 -22 -23 -24 41 0
13 14 15 16 29 30 31 32 35 38 39 -40 -41 -42 44 0
-15 29 30 31 35 38 39 43 0
7 -21 -22 -23 38 0
15 -30 -31 -44 0
-15 -16 29 30 32 35 38 39 43 0
-16 24 -32 -33 34 36 37 43 44 46 -50 52 54 55 56 58 59 -102 0
13 15 -30 -31 -40 -41 -42 -43 0
-43 50 -55 100 101 -102 0
13 15 -30 -32 -40 -41 -42 -43 0
15 -29 -30 -31 -40 -41 -42 -43 0
13 14 -15 -16 29 30 -31 -32 35 38 39 -40 -41 -42 44 0
13 -14 15 16 29 -30 31 32 35 38 39 -40 -41 -42 44 0
-9 -10 27 33 -40 0
-44 -56 -102 0
-15 29 31 -44 0
-8 16 32 -33 34 36 37 44 46 -49 -50 52 53 54 55 56 57 58 59 99 -102 0
-14 -16 29 31 32 35 38 39 43 0
-7 -23 24 36 37 -38 0
13 14 16 -31 -40 -41 -42 -43 0
-13 14 -15 16 -29 30 -31 32 35 38 39 -40 -41 -42 44 0
-13 -14 -15 -16 32 35 38 39 43 0
-14 -15 -16 29 32 35 38 39 43 0
14 15 -29 -32 -40 -41 -42 -43 0
-14 -15 29 31 35 38 39 43 0
53 -101 0
9 -26 -27 -34 35 0
-1 -2 -4 19 20 -42 0
-6 -22 -36 0
-5 21 -41 0
-2 -4 17 19 20 -42 0
1 3 -18 -19 42 0
-1 -3 18 19 -42 0
-39 -44 0
13 -29 -40 -41 -42 -43 0
-38 -44 0
14 16 -29 -31 -40 -41 -42 -43 0
-9 10 -11 26 -33 34 -35 0
5 7 -22 -23 38 0
-13 -16 30 31 32 35 38 39 43 0
13 14 15 -31 -40 -41 -42 -43 0
-43 -49 -54 100 101 -102 0
42 43 0
-1 2 3 -4 -17 18 19 -20 -39 0
-1 2 3 4 -17 18 19 20 -39 0
13 14 15 -16 29 30 31 -32 35 38 39 -40 -41 -42 44 0
9 11 -26 -33 40 0
-14 29 30 35 38 39 43 0
-38 -41 -42 -43 0
6 -21 -23 -24 41 0
-8 -33 34 36 37 43 46 49 54 55 56 -57 -102 0
14 -29 -30 -40 -41 -42 -43 0
14 15 -29 -31 -40 -41 -42 -43 0
40 -44 0
41 -44 0
42 -44 0
-8 -16 -32 -33 34 36 37 43 44 46 49 52 54 55 56 58 59 -102 0
12 -28 34 0
-1 -2 -3 4 -17 -18 -19 20 -39 0
-7 -8 -23 36 37 -38 0
-1 -2 -3 -4 -17 -18 -19 -20 -39 0
13 14 15 -32 -40 -41 -42 -43 0
-36 -43 -49 100 -102 0
-44 -53 -102 0
-13 -14 15 16 -29 -30 31 32 35 38 39 -40 -41 -42 44 0
-8 36 37 46 -49 -50 -53 99 101 0
-43 -49 -53 100 101 -102 0
24 -33 34 36 37 43 46 -50 53 54 55 56 -57 -102 0
-43 50 -56 100 101 -102 0
-44 -46 -102 0
6 7 -21 -23 38 0
-44 -55 -102 0
5 8 -22 -23 41 0
6 7 -21 -23 41 0
8 -22 -47 -51 -99 0
-16 24 -32 -33 34 36 37 44 46 49 50 52 53 54 55 56 57 58 59 99 -102 0
-13 14 -15 -16 -29 30 -31 -32 35 38 39 -40 -41 -42 44 0
8 -24 -44 -102 0
5 6 -36 41 0
36 37 51 99 0
5 7 -22 -24 41 0
-9 -10 -11 33 -40 0
-8 23 24 36 37 -41 0
5 6 8 -23 -24 38 0
5 6 7 -23 41 0
47 99 0
-6 22 37 -41 0
5 6 -23 -24 41 0
-37 -47 -99 0
-1 2 -3 4 -17 18 -19 20 -39 0
-13 -14 -15 16 -29 -30 -31 32 35 38 39 -40 -41 -42 44 0
24 -33 34 36 37 43 46 49 54 55 56 -57 -102 0
-44 -52 -102 0
-44 -58 -102 0
6 7 8 -21 -24 38 0
-36 -44 -102 0
-8 36 37 46 49 50 -53 99 101 0
-8 -16 -32 -33 34 36 37 43 44 46 -50 52 54 55 56 58 59 -102 0
-37 -43 -49 100 -102 0
-8 24 36 37 46 99 0
-37 -44 -102 0
-13 -14 -15 -16 -29 -30 -31 -32 35 38 39 -40 -41 -42 44 0
-49 50 -100 0
-43 -49 -56 100 101 -102 0
-43 50 57 100 101 -102 0
-43 -49 57 100 101 -102 0
-43 -49 -55 100 101 -102 0
5 6 7 -24 41 0
14 15 -31 -44 0
-13 -14 30 35 38 39 43 0
-35 -44 0
-13 29 35 38 39 43 0
-22 -24 -47 -51 -99 0
-99 -101 0
14 -29 -31 -32 -40 -41 -42 -43 0
-44 -99 -102 0
5 7 8 -22 41 0
-44 49 -50 -102 0
43 49 -50 -102 0
16 24 32 -33 34 36 37 43 44 46 49 52 54 55 56 58 59 -102 0
-36 -101 0
-16 24 -32 -33 34 36 37 43 44 46 49 52 54 55 56 58 59 -102 0
-9 25 -35 0
-43 -49 -99 100 -102 0
-9 -10 11 -26 27 -33 34 -35 0
-49 50 -101 0
-34 -43 -49 100 101 -102 0
33 -44 -102 0
33 -43 -49 100 101 -102 0
-43 -49 50 -102 0
-44 -59 -102 0
-37 -101 0
43 -100 -102 0
-29 -30 -31 -32 -40 -41 -42 -43 0
-9 -10 -11 27 -40 0
24 36 37 46 49 50 -53 99 101 0
-44 -57 -102 0
-43 -46 -49 100 -102 0
-44 -49 50 -102 0
13 -30 -31 -32 -40 -41 -42 -43 0
-8 16 32 -33 34 36 37 43 44 46 49 52 54 55 56 58 59 -102 0
13 14 -31 -32 -40 -41 -42 -43 0
-43 -46 50 100 -102 0
39 41 43 0
-3 -60 -103 0
3 60 -103 0
-19 -61 -104 0
19 61 -104 0
-5 -62 -105 0
5 62 -105 0
-21 -63 -106 0
21 63 -106 0
-7 -64 -107 0
7 64 -107 0
-23 -65 -108 0
23 65 -108 0
-7 -66 -109 0
7 66 -109 0
-23 -67 -110 0
23 67 -110 0
-11 -68 -111 0
11 68 -111 0
-27 -69 -112 0
-34 -43 50 100 101 -102 0
27 69 -112 0
-10 -70 -113 0
10 70 -113 0
-26 -71 -114 0
49 50 -99 100 0
26 71 -114 0
-9 -72 -115 0
9 72 -115 0
-25 -73 -116 0
-43 50 -54 100 101 -102 0
25 73 -116 0
-12 -74 -117 0
12 74 -117 0
-28 -75 -118 0
8 -24 -43 -49 100 -102 0
28 75 -118 0
-13 -76 -119 0
-8 -16 -32 -33 34 36 37 44 46 -49 -50 52 53 54 55 56 57 58 59 99 -102 0
13 76 -119 0
-29 -77 -120 0
29 77 -120 0
-15 -78 -121 0
15 78 -121 0
31 -48 79 97 -98 102 103 104 105 106 107 108 109 110 111 112 113 114 115 116 117 118 119 120 121 122 123 124 125 126 127 128 129 130 131 132 133 134 135 136 137 138 0
31 48 79 97 98 102 103 104 105 106 107 108 109 110 111 112 113 114 115 116 117 118 119 120 121 122 123 124 125 126 127 128 129 130 131 132 133 134 135 136 137 138 0
-45 -80 -122 0
45 80 -122 0
-2 -81 -123 0
2 81 -123 0
-18 -82 -124 0
6 -24 -47 -51 -99 0
18 82 -124 0
-1 -83 -125 0
1 83 -125 0
-17 -84 -126 0
17 84 -126 0
-4 -85 -127 0
4 85 -127 0
-20 -86 -128 0
20 86 -128 0
-3 -87 -129 0
-8 -16 -32 -33 34 36 37 44 46 49 50 52 53 54 55 56 57 58 59 99 -102 0
-36 -43 50 100 -102 0
3 87 -129 0
-19 -88 -130 0
19 88 -130 0
-52 -89 -131 0
52 89 -131 0
-14 -90 -132 0
14 90 -132 0
-30 -91 -133 0
30 91 -133 0
-13 -92 -134 0
7 -8 23 -24 36 37 -38 0
13 92 -134 0
-29 -93 -135 0
29 93 -135 0
-16 -94 -136 0
16 94 -136 0
-32 -95 -137 0
32 95 -137 0
-15 -96 -138 0
15 96 -138 0
33 -43 50 100 101 -102 0
-44 -54 -102 0
-31 -48 -79 -97 -98 102 103 104 105 106 107 108 109 110 111 112 113 114 115 116 117 118 119 120 121 122 123 124 125 126 127 128 129 130 131 132 133 134 135 136 137 138 0
-31 48 -79 -97 98 102 103 104 105 106 107 108 109 110 111 112 113 114 115 116 117 118 119 120 121 122 123 124 125 126 127 128 129 130 131 132 133 134 135 136 137 138 0
15 16 -29 -30 -40 -41 -42 -43 0
16 24 32 -33 34 36 37 44 46 49 50 52 53 54 55 56 57 58 59 99 -102 0
43 -101 -102 0
-43 50 -53 100 101 -102 0
5 -22 -23 -24 41 0
